TCS_Benchmarks/redos_fix/regexlib2_output_distinct_1073_1072_441_0.txt
[\s\S]*
([\s\S]*)(<\/style>)([\s\S]*)
[\s\S]*